p cnf 192 1400
1 4 0
-1 -4 0
1 2 15 0
-1 -2 -15 0
1 2 6 0
-1 -2 -6 0
1 3 36 0
-1 -3 -36 0
27 1 3 0
-27 -1 -3 0
1 3 20 0
-1 -3 -20 0
1 2 11 0
-1 -2 -11 0
32 1 0
-32 -1 0
1 42 0
-1 -42 0
2 78 0
-2 -78 0
2 3 102 0
-2 -3 -102 0
2 3 85 0
-2 -3 -85 0
2 100 0
-2 -100 0
2 3 82 0
-2 -3 -82 0
2 107 0
-2 -107 0
185 3 0
-185 -3 0
3 189 0
-3 -189 0
184 3 0
-184 -3 0
24 33 4 0
-24 -33 -4 0
16 10 4 0
-16 -10 -4 0
24 4 5 0
-24 -4 -5 0
33 19 4 0
-33 -19 -4 0
4 5 7 0
-4 -5 -7 0
4 37 39 0
-4 -37 -39 0
17 4 28 0
-17 -4 -28 0
13 4 21 0
-13 -4 -21 0
26 4 12 0
-26 -4 -12 0
41 4 23 0
-41 -4 -23 0
25 61 5 0
-25 -61 -5 0
43 5 6 0
-43 -5 -6 0
64 35 5 0
-64 -35 -5 0
18 5 54 0
-18 -5 -54 0
9 45 5 0
-9 -45 -5 0
40 74 5 0
-40 -74 -5 0
67 5 31 0
-67 -5 -31 0
50 5 14 0
-50 -5 -14 0
41 42 5 0
-41 -42 -5 0
60 6 7 0
-60 -6 -7 0
8 77 6 0
-8 -77 -6 0
28 6 95 0
-28 -6 -95 0
38 104 6 0
-38 -104 -6 0
96 29 6 0
-96 -29 -6 0
88 21 6 0
-88 -21 -6 0
81 12 6 0
-81 -12 -6 0
89 6 22 0
-89 -6 -22 0
41 75 6 0
-41 -75 -6 0
65 15 7 0
-65 -15 -7 0
25 69 7 0
-25 -69 -7 0
73 34 7 0
-73 -34 -7 0
17 66 7 0
-17 -66 -7 0
9 62 7 0
-9 -62 -7 0
58 36 7 0
-58 -36 -7 0
13 46 7 0
-13 -46 -7 0
32 23 7 0
-32 -23 -7 0
32 35 7 0
-32 -35 -7 0
8 33 53 0
-8 -33 -53 0
8 16 137 0
-8 -16 -137 0
8 72 35 0
-8 -72 -35 0
8 18 138 0
-8 -18 -138 0
8 9 131 0
-8 -9 -131 0
8 37 141 0
-8 -37 -141 0
8 10 133 0
-8 -10 -133 0
8 40 130 0
-8 -40 -130 0
8 115 14 0
-8 -115 -14 0
8 42 39 0
-8 -42 -39 0
24 9 48 0
-24 -9 -48 0
162 9 26 0
-162 -9 -26 0
9 27 164 0
-9 -27 -164 0
160 9 20 0
-160 -9 -20 0
9 154 12 0
-9 -154 -12 0
151 9 39 0
-151 -9 -39 0
9 30 159 0
-9 -30 -159 0
9 71 23 0
-9 -71 -23 0
10 92 15 0
-10 -92 -15 0
25 10 115 0
-25 -10 -115 0
10 28 151 0
-10 -28 -151 0
10 108 38 0
-10 -108 -38 0
10 132 29 0
-10 -132 -29 0
10 12 138 0
-10 -12 -138 0
10 141 22 0
-10 -141 -22 0
10 146 31 0
-10 -146 -31 0
72 41 10 0
-72 -41 -10 0
65 33 11 0
-65 -33 -11 0
104 25 11 0
-104 -25 -11 0
17 11 103 0
-17 -11 -103 0
97 26 11 0
-97 -26 -11 0
91 11 37 0
-91 -11 -37 0
88 11 29 0
-88 -11 -29 0
11 21 79 0
-11 -21 -79 0
11 12 84 0
-11 -12 -84 0
40 83 11 0
-40 -83 -11 0
11 76 14 0
-11 -76 -14 0
34 12 173 0
-34 -12 -173 0
18 12 191 0
-18 -12 -191 0
188 12 36 0
-188 -12 -36 0
19 12 54 0
-19 -12 -54 0
12 13 174 0
-12 -13 -174 0
32 12 31 0
-32 -12 -31 0
16 13 150 0
-16 -13 -150 0
35 68 13 0
-35 -68 -13 0
27 13 181 0
-27 -13 -181 0
178 20 13 0
-178 -20 -13 0
40 13 126 0
-40 -13 -126 0
171 13 31 0
-171 -13 -31 0
122 13 14 0
-122 -13 -14 0
42 34 13 0
-42 -34 -13 0
104 14 15 0
-104 -14 -15 0
34 14 119 0
-34 -14 -119 0
114 36 14 0
-114 -36 -14 0
124 28 14 0
-124 -28 -14 0
19 69 14 0
-19 -69 -14 0
128 14 22 0
-128 -14 -22 0
32 40 14 0
-32 -40 -14 0
24 60 15 0
-24 -60 -15 0
16 77 15 0
-16 -77 -15 0
33 43 15 0
-33 -43 -15 0
18 84 15 0
-18 -84 -15 0
89 37 15 0
-89 -37 -15 0
96 21 15 0
-96 -21 -15 0
40 101 15 0
-40 -101 -15 0
16 25 121 0
-16 -25 -121 0
16 17 136 0
-16 -17 -136 0
16 26 139 0
-16 -26 -139 0
16 29 142 0
-16 -29 -142 0
16 149 30 0
-16 -149 -30 0
16 32 22 0
-16 -32 -22 0
16 32 39 0
-16 -32 -39 0
17 35 45 0
-17 -35 -45 0
17 18 167 0
-17 -18 -167 0
17 27 156 0
-17 -27 -156 0
120 17 38 0
-120 -17 -38 0
17 131 22 0
-17 -131 -22 0
17 165 31 0
-17 -165 -31 0
17 42 30 0
-17 -42 -30 0
18 26 191 0
-18 -26 -191 0
18 29 174 0
-18 -29 -174 0
18 187 20 0
-18 -187 -20 0
18 147 39 0
-18 -147 -39 0
18 30 154 0
-18 -30 -154 0
32 18 31 0
-32 -18 -31 0
25 50 19 0
-25 -50 -19 0
72 19 37 0
-72 -19 -37 0
19 44 38 0
-19 -44 -38 0
19 29 46 0
-19 -29 -46 0
64 41 19 0
-64 -41 -19 0
19 52 21 0
-19 -52 -21 0
62 19 30 0
-62 -19 -30 0
32 19 23 0
-32 -19 -23 0
25 20 127 0
-25 -20 -127 0
170 34 20 0
-170 -34 -20 0
20 28 166 0
-20 -28 -166 0
114 20 38 0
-114 -20 -38 0
20 21 182 0
-20 -21 -182 0
20 22 143 0
-20 -22 -143 0
41 20 63 0
-41 -20 -63 0
59 35 21 0
-59 -35 -21 0
27 172 21 0
-27 -172 -21 0
144 21 39 0
-144 -21 -39 0
177 21 31 0
-177 -21 -31 0
49 21 23 0
-49 -21 -23 0
24 72 22 0
-24 -72 -22 0
26 147 22 0
-26 -147 -22 0
137 37 22 0
-137 -37 -22 0
133 22 39 0
-133 -22 -39 0
151 22 30 0
-151 -22 -30 0
25 74 23 0
-25 -74 -23 0
53 37 23 0
-53 -37 -23 0
28 70 23 0
-28 -70 -23 0
51 38 23 0
-51 -38 -23 0
68 29 23 0
-68 -29 -23 0
24 42 23 0
-24 -42 -23 0
24 25 44 0
-24 -25 -44 0
24 64 35 0
-24 -64 -35 0
24 69 38 0
-24 -69 -38 0
24 52 29 0
-24 -52 -29 0
24 57 31 0
-24 -57 -31 0
25 114 27 0
-25 -114 -27 0
128 25 39 0
-128 -25 -39 0
26 179 34 0
-26 -179 -34 0
26 28 157 0
-26 -28 -157 0
26 125 38 0
-26 -125 -38 0
192 26 31 0
-192 -26 -31 0
41 26 57 0
-41 -26 -57 0
33 58 27 0
-33 -58 -27 0
27 37 135 0
-27 -37 -135 0
153 27 28 0
-153 -27 -28 0
27 29 182 0
-27 -29 -182 0
56 41 27 0
-56 -41 -27 0
48 35 28 0
-48 -35 -28 0
140 28 39 0
-140 -28 -39 0
161 28 30 0
-161 -28 -30 0
169 34 29 0
-169 -34 -29 0
36 29 181 0
-36 -29 -181 0
33 30 70 0
-33 -30 -70 0
164 36 30 0
-164 -36 -30 0
40 116 30 0
-40 -116 -30 0
157 30 31 0
-157 -30 -31 0
145 37 31 0
-145 -37 -31 0
32 33 41 0
-32 -33 -41 0
32 33 35 0
-32 -33 -35 0
33 34 49 0
-33 -34 -49 0
33 61 38 0
-33 -61 -38 0
34 35 52 0
-34 -35 -52 0
34 132 37 0
-34 -132 -37 0
40 113 34 0
-40 -113 -34 0
56 35 36 0
-56 -35 -36 0
36 37 143 0
-36 -37 -143 0
36 38 127 0
-36 -38 -127 0
41 36 47 0
-41 -36 -47 0
36 134 39 0
-36 -134 -39 0
40 110 38 0
-40 -110 -38 0
40 108 39 0
-40 -108 -39 0
40 41 44 0
-40 -41 -44 0
43 60 78 0
-43 -60 -78 0
43 93 62 0
-43 -93 -62 0
43 44 76 0
-43 -44 -76 0
43 103 71 0
-43 -103 -71 0
43 86 55 0
-43 -86 -55 0
43 46 79 0
-43 -46 -79 0
107 75 43 0
-107 -75 -43 0
99 43 68 0
-99 -43 -68 0
51 83 43 0
-51 -83 -43 0
109 44 45 0
-109 -44 -45 0
65 90 44 0
-65 -90 -44 0
73 129 44 0
-73 -129 -44 0
124 66 44 0
-124 -66 -44 0
58 44 118 0
-58 -44 -118 0
112 49 44 0
-112 -49 -44 0
59 44 119 0
-59 -44 -119 0
158 45 70 0
-158 -45 -70 0
53 45 149 0
-53 -45 -149 0
161 45 71 0
-161 -45 -71 0
45 157 55 0
-45 -157 -55 0
152 45 46 0
-152 -45 -46 0
153 45 47 0
-153 -45 -47 0
106 75 45 0
-106 -75 -45 0
51 124 45 0
-51 -124 -45 0
113 61 46 0
-113 -61 -46 0
175 46 63 0
-175 -46 -63 0
64 49 46 0
-64 -49 -46 0
57 173 46 0
-57 -173 -46 0
49 169 46 0
-49 -169 -46 0
129 74 46 0
-129 -74 -46 0
67 179 46 0
-67 -179 -46 0
60 85 47 0
-60 -85 -47 0
175 52 47 0
-175 -52 -47 0
156 62 47 0
-156 -62 -47 0
65 82 47 0
-65 -82 -47 0
73 182 47 0
-73 -182 -47 0
66 155 47 0
-66 -155 -47 0
176 49 47 0
-176 -49 -47 0
178 59 47 0
-178 -59 -47 0
172 68 47 0
-172 -68 -47 0
48 70 159 0
-48 -70 -159 0
48 158 62 0
-48 -158 -62 0
48 165 54 0
-48 -165 -54 0
48 156 63 0
-48 -156 -63 0
48 161 66 0
-48 -161 -66 0
48 58 155 0
-48 -58 -155 0
48 49 163 0
-48 -49 -163 0
48 75 103 0
-48 -75 -103 0
48 51 116 0
-48 -51 -116 0
49 174 55 0
-49 -174 -55 0
72 49 142 0
-72 -49 -142 0
56 49 178 0
-56 -49 -178 0
49 50 126 0
-49 -50 -126 0
50 60 90 0
-50 -60 -90 0
50 108 53 0
-50 -108 -53 0
120 50 71 0
-120 -50 -71 0
64 50 51 0
-64 -50 -51 0
57 50 117 0
-57 -50 -117 0
50 75 101 0
-50 -75 -101 0
112 50 68 0
-112 -50 -68 0
50 51 110 0
-50 -51 -110 0
129 51 52 0
-129 -51 -52 0
72 121 51 0
-72 -121 -51 0
65 51 105 0
-65 -51 -105 0
56 51 118 0
-56 -51 -118 0
59 51 113 0
-59 -51 -113 0
122 52 61 0
-122 -52 -61 0
52 53 150 0
-52 -53 -150 0
152 52 70 0
-152 -52 -70 0
171 52 55 0
-171 -52 -55 0
178 58 52 0
-178 -58 -52 0
99 75 52 0
-99 -75 -52 0
69 53 111 0
-69 -53 -111 0
140 53 62 0
-140 -53 -62 0
139 53 54 0
-139 -53 -54 0
53 134 63 0
-53 -134 -63 0
66 53 151 0
-66 -53 -151 0
67 147 53 0
-67 -147 -53 0
97 60 54 0
-97 -60 -54 0
157 54 71 0
-157 -54 -71 0
192 54 55 0
-192 -54 -55 0
64 57 54 0
-64 -57 -54 0
73 177 54 0
-73 -177 -54 0
59 171 54 0
-59 -171 -54 0
179 68 54 0
-179 -68 -54 0
117 69 55 0
-117 -69 -55 0
188 63 55 0
-188 -63 -55 0
66 154 55 0
-66 -154 -55 0
57 191 55 0
-57 -191 -55 0
74 125 55 0
-74 -125 -55 0
191 67 55 0
-191 -67 -55 0
56 123 69 0
-56 -123 -69 0
56 60 102 0
-56 -60 -102 0
56 166 62 0
-56 -166 -62 0
56 73 176 0
-56 -73 -176 0
56 66 160 0
-56 -66 -160 0
56 58 184 0
-56 -58 -184 0
56 67 187 0
-56 -67 -187 0
57 62 167 0
-57 -62 -167 0
65 57 86 0
-65 -57 -86 0
73 57 174 0
-73 -57 -174 0
57 58 183 0
-57 -58 -183 0
168 57 59 0
-168 -57 -59 0
58 166 71 0
-58 -166 -71 0
64 58 63 0
-64 -58 -63 0
58 123 74 0
-58 -123 -74 0
170 58 68 0
-170 -58 -68 0
59 69 126 0
-59 -69 -126 0
129 59 61 0
-129 -59 -61 0
59 181 63 0
-59 -181 -63 0
74 59 122 0
-74 -59 -122 0
67 59 174 0
-67 -59 -174 0
60 61 76 0
-60 -61 -76 0
60 93 70 0
-60 -93 -70 0
82 60 63 0
-82 -60 -63 0
105 74 60 0
-105 -74 -60 0
109 61 62 0
-109 -61 -62 0
124 61 71 0
-124 -61 -71 0
73 61 126 0
-73 -61 -126 0
66 116 61 0
-66 -116 -61 0
68 61 119 0
-68 -61 -119 0
64 66 62 0
-64 -66 -62 0
120 74 62 0
-120 -74 -62 0
65 102 63 0
-65 -102 -63 0
73 172 63 0
-73 -172 -63 0
176 68 63 0
-176 -68 -63 0
64 70 71 0
-64 -70 -71 0
64 65 75 0
-64 -65 -75 0
64 66 70 0
-64 -66 -70 0
65 95 71 0
-65 -95 -71 0
65 74 94 0
-65 -74 -94 0
65 98 67 0
-65 -98 -67 0
72 66 149 0
-72 -66 -149 0
67 70 167 0
-67 -70 -167 0
72 67 139 0
-72 -67 -139 0
75 67 84 0
-75 -67 -84 0
168 67 68 0
-168 -67 -68 0
129 68 69 0
-129 -68 -69 0
109 69 70 0
-109 -69 -70 0
116 69 71 0
-116 -69 -71 0
83 75 69 0
-83 -75 -69 0
73 163 70 0
-73 -163 -70 0
72 140 71 0
-72 -140 -71 0
72 73 150 0
-72 -73 -150 0
72 74 111 0
-72 -74 -111 0
73 75 79 0
-73 -75 -79 0
74 75 76 0
-74 -75 -76 0
121 76 92 0
-121 -76 -92 0
110 76 94 0
-110 -76 -94 0
108 76 77 0
-108 -76 -77 0
100 83 76 0
-100 -83 -76 0
76 117 87 0
-76 -117 -87 0
80 76 110 0
-80 -76 -110 0
100 76 101 0
-100 -76 -101 0
92 77 78 0
-92 -77 -78 0
132 77 79 0
-132 -77 -79 0
97 145 77 0
-97 -145 -77 0
106 77 151 0
-106 -77 -151 0
98 77 146 0
-98 -77 -146 0
90 77 111 0
-90 -77 -111 0
82 77 135 0
-82 -77 -135 0
91 77 141 0
-91 -77 -141 0
105 101 78 0
-105 -101 -78 0
97 84 78 0
-97 -84 -78 0
94 101 78 0
-94 -101 -78 0
106 78 103 0
-106 -78 -103 0
86 98 78 0
-86 -98 -78 0
80 94 78 0
-80 -94 -78 0
104 90 78 0
-104 -90 -78 0
80 83 78 0
-80 -83 -78 0
180 102 79 0
-180 -102 -79 0
170 85 79 0
-170 -85 -79 0
99 100 79 0
-99 -100 -79 0
171 87 79 0
-171 -87 -79 0
80 112 79 0
-80 -112 -79 0
105 119 79 0
-105 -119 -79 0
168 81 79 0
-168 -81 -79 0
80 124 93 0
-80 -124 -93 0
80 109 95 0
-80 -109 -95 0
80 129 96 0
-80 -129 -96 0
80 89 121 0
-80 -89 -121 0
80 82 118 0
-80 -82 -118 0
80 107 104 0
-80 -107 -104 0
80 113 99 0
-80 -113 -99 0
81 139 92 0
-81 -139 -92 0
81 84 190 0
-81 -84 -190 0
81 117 94 0
-81 -117 -94 0
81 97 191 0
-81 -97 -191 0
81 106 167 0
-81 -106 -167 0
192 81 98 0
-192 -81 -98 0
186 81 82 0
-186 -81 -82 0
81 146 91 0
-81 -146 -91 0
81 100 86 0
-81 -100 -86 0
160 82 103 0
-160 -82 -103 0
82 187 87 0
-82 -187 -87 0
104 82 123 0
-104 -82 -123 0
88 170 82 0
-88 -170 -82 0
82 83 114 0
-82 -83 -114 0
128 83 92 0
-128 -83 -92 0
83 85 127 0
-83 -85 -127 0
90 83 100 0
-90 -83 -100 0
96 83 119 0
-96 -83 -119 0
115 89 83 0
-115 -89 -83 0
162 84 93 0
-162 -84 -93 0
186 84 85 0
-186 -84 -85 0
84 102 183 0
-84 -102 -183 0
192 84 87 0
-192 -84 -87 0
105 84 117 0
-105 -84 -117 0
90 84 125 0
-90 -84 -125 0
101 85 118 0
-101 -85 -118 0
114 85 94 0
-114 -85 -94 0
187 85 86 0
-187 -85 -86 0
164 85 95 0
-164 -85 -95 0
98 188 85 0
-98 -188 -85 0
99 85 181 0
-99 -85 -181 0
147 92 86 0
-147 -92 -86 0
190 86 87 0
-190 -86 -87 0
96 179 86 0
-96 -179 -86 0
106 165 86 0
-106 -165 -86 0
138 91 86 0
-138 -91 -86 0
97 100 86 0
-97 -100 -86 0
125 101 87 0
-125 -101 -87 0
154 95 87 0
-154 -95 -87 0
191 98 87 0
-191 -98 -87 0
89 139 87 0
-89 -139 -87 0
97 107 87 0
-97 -107 -87 0
99 174 87 0
-99 -174 -87 0
88 129 101 0
-88 -129 -101 0
88 92 150 0
-88 -92 -150 0
88 94 119 0
-88 -94 -119 0
88 105 126 0
-88 -105 -126 0
88 106 163 0
-88 -106 -163 0
88 98 173 0
-88 -98 -173 0
88 90 122 0
-88 -90 -122 0
88 169 99 0
-88 -169 -99 0
89 108 94 0
-89 -108 -94 0
89 149 103 0
-89 -149 -103 0
89 146 97 0
-89 -146 -97 0
89 106 140 0
-89 -106 -140 0
89 90 130 0
-89 -90 -130 0
89 91 133 0
-89 -91 -133 0
105 90 100 0
-105 -90 -100 0
96 113 90 0
-96 -113 -90 0
90 107 94 0
-90 -107 -94 0
91 101 111 0
-91 -101 -111 0
91 93 151 0
-91 -93 -151 0
91 149 95 0
-91 -149 -95 0
115 105 91 0
-115 -105 -91 0
107 91 92 0
-107 -91 -92 0
99 91 142 0
-99 -91 -142 0
131 92 93 0
-131 -92 -93 0
92 102 143 0
-92 -102 -143 0
136 92 95 0
-136 -92 -95 0
116 93 94 0
-116 -93 -94 0
100 93 95 0
-100 -93 -95 0
161 106 93 0
-161 -106 -93 0
98 93 157 0
-98 -93 -157 0
100 93 103 0
-100 -93 -103 0
96 126 94 0
-96 -126 -94 0
159 103 95 0
-159 -103 -95 0
97 167 95 0
-97 -167 -95 0
159 106 95 0
-159 -106 -95 0
96 170 102 0
-96 -170 -102 0
96 105 112 0
-96 -105 -112 0
96 97 168 0
-96 -97 -168 0
96 98 171 0
-96 -98 -171 0
97 99 173 0
-97 -99 -173 0
98 154 103 0
-98 -154 -103 0
104 98 117 0
-104 -98 -117 0
99 182 102 0
-99 -182 -102 0
104 99 126 0
-104 -99 -126 0
104 100 101 0
-104 -100 -101 0
101 102 127 0
-101 -102 -127 0
164 102 103 0
-164 -102 -103 0
106 155 102 0
-106 -155 -102 0
105 109 103 0
-105 -109 -103 0
104 105 110 0
-104 -105 -110 0
104 106 116 0
-104 -106 -116 0
137 115 108 0
-137 -115 -108 0
122 108 142 0
-122 -108 -142 0
123 108 143 0
-123 -108 -143 0
131 108 109 0
-131 -108 -109 0
128 108 141 0
-128 -108 -141 0
108 133 111 0
-108 -133 -111 0
116 109 110 0
-116 -109 -110 0
125 109 165 0
-125 -109 -165 0
130 109 151 0
-130 -109 -151 0
120 161 109 0
-120 -161 -109 0
114 155 109 0
-114 -155 -109 0
128 115 110 0
-128 -115 -110 0
123 110 127 0
-123 -110 -127 0
128 110 111 0
-128 -110 -111 0
130 110 111 0
-130 -110 -111 0
112 122 110 0
-112 -122 -110 0
121 137 111 0
-121 -137 -111 0
136 124 111 0
-136 -124 -111 0
144 119 111 0
-144 -119 -111 0
114 148 111 0
-114 -148 -111 0
112 169 122 0
-112 -169 -122 0
112 116 152 0
-112 -116 -152 0
112 123 181 0
-112 -123 -181 0
112 125 173 0
-112 -125 -173 0
112 130 150 0
-112 -130 -150 0
112 114 175 0
-112 -114 -175 0
113 115 150 0
-113 -115 -150 0
113 172 127 0
-113 -172 -127 0
113 123 180 0
-113 -123 -180 0
113 177 117 0
-113 -177 -117 0
120 113 163 0
-120 -113 -163 0
176 113 114 0
-176 -113 -114 0
129 114 180 0
-129 -114 -180 0
185 114 118 0
-185 -114 -118 0
136 115 116 0
-136 -115 -116 0
144 129 115 0
-144 -129 -115 0
145 115 125 0
-145 -115 -125 0
115 148 118 0
-115 -148 -118 0
153 116 127 0
-153 -116 -127 0
120 116 159 0
-120 -116 -159 0
122 179 117 0
-122 -179 -117 0
128 138 117 0
-128 -138 -117 0
124 117 165 0
-124 -117 -165 0
145 130 117 0
-145 -130 -117 0
126 180 118 0
-126 -180 -118 0
122 182 118 0
-122 -182 -118 0
123 189 118 0
-123 -189 -118 0
130 118 143 0
-130 -118 -143 0
120 153 118 0
-120 -153 -118 0
123 182 119 0
-123 -182 -119 0
177 125 119 0
-177 -125 -119 0
130 142 119 0
-130 -142 -119 0
120 152 119 0
-120 -152 -119 0
120 121 151 0
-120 -121 -151 0
120 128 149 0
-120 -128 -149 0
120 124 159 0
-120 -124 -159 0
121 122 132 0
-121 -122 -132 0
144 121 126 0
-144 -121 -126 0
121 123 134 0
-121 -123 -134 0
121 138 125 0
-121 -138 -125 0
121 130 141 0
-121 -130 -141 0
176 122 127 0
-176 -122 -127 0
164 123 124 0
-164 -123 -124 0
156 124 127 0
-156 -124 -127 0
124 125 167 0
-124 -125 -167 0
128 146 125 0
-128 -146 -125 0
175 126 127 0
-175 -126 -127 0
128 132 126 0
-128 -132 -126 0
135 130 127 0
-135 -130 -127 0
128 129 142 0
-128 -129 -142 0
129 130 132 0
-129 -130 -132 0
131 149 158 0
-131 -149 -158 0
137 131 149 0
-137 -131 -149 0
131 140 133 0
-131 -140 -133 0
144 131 163 0
-144 -131 -163 0
152 131 132 0
-152 -131 -132 0
131 140 159 0
-131 -140 -159 0
153 131 134 0
-153 -131 -134 0
132 133 150 0
-132 -133 -150 0
177 147 132 0
-177 -147 -132 0
148 178 132 0
-148 -178 -132 0
136 163 132 0
-136 -163 -132 0
137 133 0
-137 -133 0
142 133 150 0
-142 -133 -150 0
145 139 133 0
-145 -139 -133 0
133 134 135 0
-133 -134 -135 0
143 133 135 0
-143 -133 -135 0
170 142 134 0
-170 -142 -134 0
185 134 143 0
-185 -134 -143 0
145 186 134 0
-145 -186 -134 0
146 187 134 0
-146 -187 -134 0
148 141 134 0
-148 -141 -134 0
136 134 160 0
-136 -134 -160 0
149 166 135 0
-149 -166 -135 0
183 138 135 0
-183 -138 -135 0
144 178 135 0
-144 -178 -135 0
147 188 135 0
-147 -188 -135 0
184 148 135 0
-184 -148 -135 0
136 155 135 0
-136 -155 -135 0
136 137 151 0
-136 -137 -151 0
136 140 141 0
-136 -140 -141 0
136 161 140 0
-136 -161 -140 0
136 158 151 0
-136 -158 -151 0
137 138 139 0
-137 -138 -139 0
137 146 147 0
-137 -146 -147 0
137 141 0
-137 -141 0
186 138 143 0
-186 -138 -143 0
138 139 190 0
-138 -139 -190 0
168 138 150 0
-168 -138 -150 0
162 138 140 0
-162 -138 -140 0
144 139 173 0
-144 -139 -173 0
145 139 191 0
-145 -139 -191 0
188 139 148 0
-188 -139 -148 0
145 154 140 0
-145 -154 -140 0
148 164 140 0
-148 -164 -140 0
144 141 150 0
-144 -141 -150 0
145 147 141 0
-145 -147 -141 0
144 169 142 0
-144 -169 -142 0
147 171 142 0
-147 -171 -142 0
172 148 142 0
-172 -148 -142 0
156 149 143 0
-156 -149 -143 0
144 176 143 0
-144 -176 -143 0
184 148 143 0
-184 -148 -143 0
144 146 174 0
-144 -146 -174 0
145 162 149 0
-145 -162 -149 0
192 145 147 0
-192 -145 -147 0
146 179 150 0
-146 -179 -150 0
146 147 190 0
-146 -147 -190 0
146 148 183 0
-146 -148 -183 0
156 148 151 0
-156 -148 -151 0
152 180 166 0
-152 -180 -166 0
152 170 156 0
-152 -170 -156 0
152 162 174 0
-152 -162 -174 0
152 164 176 0
-152 -164 -176 0
152 172 160 0
-152 -172 -160 0
152 154 168 0
-152 -154 -168 0
153 185 156 0
-153 -185 -156 0
153 188 167 0
-153 -188 -167 0
153 166 158 0
-153 -166 -158 0
160 153 184 0
-160 -153 -184 0
153 154 183 0
-153 -154 -183 0
184 153 155 0
-184 -153 -155 0
154 165 158 0
-154 -165 -158 0
154 163 179 0
-154 -163 -179 0
154 165 190 0
-154 -165 -190 0
155 189 166 0
-155 -189 -166 0
162 155 187 0
-162 -155 -187 0
186 155 157 0
-186 -155 -157 0
185 155 164 0
-185 -155 -164 0
160 155 159 0
-160 -155 -159 0
187 156 157 0
-187 -156 -157 0
156 166 159 0
-156 -166 -159 0
160 161 156 0
-160 -161 -156 0
168 163 157 0
-168 -163 -157 0
157 158 167 0
-157 -158 -167 0
157 190 167 0
-157 -190 -167 0
160 157 183 0
-160 -157 -183 0
158 159 0
-158 -159 0
161 158 0
-161 -158 0
160 164 158 0
-160 -164 -158 0
162 165 159 0
-162 -165 -159 0
160 188 165 0
-160 -188 -165 0
161 162 167 0
-161 -162 -167 0
161 164 166 0
-161 -164 -166 0
162 163 171 0
-162 -163 -171 0
192 162 167 0
-192 -162 -167 0
162 165 191 0
-162 -165 -191 0
163 181 166 0
-163 -181 -166 0
163 164 175 0
-163 -164 -175 0
186 165 166 0
-186 -165 -166 0
168 188 182 0
-168 -188 -182 0
168 169 177 0
-168 -169 -177 0
168 173 192 0
-168 -173 -192 0
168 169 171 0
-168 -169 -171 0
169 172 180 0
-169 -172 -180 0
169 177 174 0
-169 -177 -174 0
176 169 170 0
-176 -169 -170 0
169 178 180 0
-169 -178 -180 0
184 170 181 0
-184 -170 -181 0
185 170 175 0
-185 -170 -175 0
178 170 189 0
-178 -170 -189 0
176 171 183 0
-176 -171 -183 0
186 171 182 0
-186 -171 -182 0
171 173 190 0
-171 -173 -190 0
185 172 181 0
-185 -172 -181 0
172 189 175 0
-172 -189 -175 0
186 172 173 0
-186 -172 -173 0
185 178 172 0
-185 -178 -172 0
187 180 173 0
-187 -180 -173 0
177 173 191 0
-177 -173 -191 0
186 174 175 0
-186 -174 -175 0
192 179 174 0
-192 -179 -174 0
176 184 175 0
-176 -184 -175 0
184 182 175 0
-184 -182 -175 0
177 187 175 0
-177 -187 -175 0
176 185 181 0
-176 -185 -181 0
177 181 183 0
-177 -181 -183 0
177 179 190 0
-177 -179 -190 0
185 178 182 0
-185 -178 -182 0
186 178 179 0
-186 -178 -179 0
188 179 180 0
-188 -179 -180 0
184 180 181 0
-184 -180 -181 0
184 180 182 0
-184 -180 -182 0
188 189 183 0
-188 -189 -183 0
191 186 183 0
-191 -186 -183 0
192 187 183 0
-192 -187 -183 0
185 187 188 0
-185 -187 -188 0
190 191 0
-190 -191 0
192 190 0
-192 -190 0
